50
1000
691
689
688
684
683
675
668
634
632
632
626
610
597
596
587
584
581
579
537
522
518
516
514
504
501
498
491
486
468
468
448
438
437
423
421
412
408
407
398
393
380
358
318
313
288
283
276
266
250
231
